60
1 0 6
2 0 5
2 1 1
3 0 5
3 1 1
3 2 4
4 0 6
4 1 5
4 2 1
4 3 4
5 0 6
5 1 6
5 2 1
5 3 4
5 4 4
6 0 3
6 1 1
6 2 6
6 3 5
6 4 1
6 5 6
7 0 4
7 1 3
7 2 2
7 3 6
7 4 6
7 5 4
7 6 4
8 0 3
8 1 1
8 2 1
8 3 1
8 4 3
8 5 5
8 6 3
8 7 3
9 0 4
9 1 3
9 2 1
9 3 2
9 4 3
9 5 5
9 6 4
9 7 3
9 8 5
10 0 6
10 1 3
10 2 6
10 3 2
10 4 3
10 5 2
10 6 1
10 7 5
10 8 2
10 9 5
11 0 5
11 1 5
11 2 6
11 3 1
11 4 6
11 5 2
11 6 5
11 7 1
11 8 4
11 9 2
11 10 4
12 0 3
12 1 4
12 2 6
12 3 4
12 4 4
12 5 6
12 6 6
12 7 5
12 8 4
12 9 3
12 10 6
12 11 2
13 0 4
13 1 3
13 2 5
13 3 1
13 4 5
13 5 3
13 6 6
13 7 2
13 8 4
13 9 1
13 10 3
13 11 2
13 12 5
14 0 5
14 1 5
14 2 6
14 3 4
14 4 6
14 5 2
14 6 3
14 7 1
14 8 5
14 9 3
14 10 3
14 11 3
14 12 3
14 13 5
15 0 6
15 1 3
15 2 1
15 3 6
15 4 3
15 5 6
15 6 3
15 7 4
15 8 6
15 9 4
15 10 1
15 11 3
15 12 2
15 13 6
15 14 1
16 0 2
16 1 3
16 2 4
16 3 1
16 4 3
16 5 5
16 6 1
16 7 1
16 8 2
16 9 4
16 10 2
16 11 3
16 12 1
16 13 5
16 14 2
16 15 5
17 0 2
17 1 2
17 2 3
17 3 6
17 4 1
17 5 1
17 6 1
17 7 1
17 8 1
17 9 5
17 10 5
17 11 3
17 12 1
17 13 3
17 14 1
17 15 2
17 16 6
18 0 6
18 1 6
18 2 1
18 3 3
18 4 4
18 5 4
18 6 1
18 7 6
18 8 1
18 9 3
18 10 5
18 11 6
18 12 4
18 13 2
18 14 2
18 15 5
18 16 2
18 17 5
19 0 2
19 1 4
19 2 4
19 3 3
19 4 5
19 5 1
19 6 2
19 7 4
19 8 3
19 9 2
19 10 2
19 11 6
19 12 6
19 13 5
19 14 2
19 15 4
19 16 6
19 17 1
19 18 3
20 0 1
20 1 2
20 2 2
20 3 2
20 4 2
20 5 1
20 6 1
20 7 5
20 8 1
20 9 5
20 10 1
20 11 6
20 12 2
20 13 3
20 14 3
20 15 4
20 16 6
20 17 4
20 18 2
20 19 6
21 0 3
21 1 6
21 2 1
21 3 1
21 4 4
21 5 6
21 6 5
21 7 1
21 8 1
21 9 5
21 10 5
21 11 2
21 12 5
21 13 2
21 14 1
21 15 6
21 16 1
21 17 6
21 18 1
21 19 3
21 20 6
22 0 2
22 1 5
22 2 4
22 3 1
22 4 5
22 5 4
22 6 1
22 7 1
22 8 2
22 9 6
22 10 3
22 11 5
22 12 1
22 13 5
22 14 2
22 15 1
22 16 3
22 17 3
22 18 2
22 19 6
22 20 1
22 21 1
23 0 5
23 1 3
23 2 1
23 3 6
23 4 2
23 5 4
23 6 6
23 7 3
23 8 5
23 9 6
23 10 4
23 11 4
23 12 6
23 13 2
23 14 1
23 15 2
23 16 5
23 17 1
23 18 2
23 19 1
23 20 3
23 21 5
23 22 6
24 0 3
24 1 4
24 2 5
24 3 5
24 4 2
24 5 2
24 6 4
24 7 1
24 8 5
24 9 2
24 10 3
24 11 4
24 12 4
24 13 1
24 14 5
24 15 1
24 16 3
24 17 3
24 18 6
24 19 5
24 20 1
24 21 5
24 22 3
24 23 3
25 0 3
25 1 5
25 2 4
25 3 5
25 4 2
25 5 1
25 6 3
25 7 2
25 8 5
25 9 6
25 10 6
25 11 2
25 12 4
25 13 6
25 14 1
25 15 6
25 16 1
25 17 5
25 18 2
25 19 3
25 20 4
25 21 2
25 22 6
25 23 4
25 24 5
26 0 6
26 1 6
26 2 6
26 3 2
26 4 4
26 5 3
26 6 3
26 7 2
26 8 6
26 9 4
26 10 4
26 11 4
26 12 5
26 13 1
26 14 5
26 15 1
26 16 6
26 17 6
26 18 5
26 19 4
26 20 5
26 21 1
26 22 6
26 23 4
26 24 1
26 25 6
27 0 3
27 1 5
27 2 1
27 3 4
27 4 6
27 5 6
27 6 4
27 7 1
27 8 3
27 9 1
27 10 2
27 11 5
27 12 2
27 13 4
27 14 2
27 15 5
27 16 1
27 17 4
27 18 3
27 19 3
27 20 4
27 21 5
27 22 3
27 23 4
27 24 3
27 25 2
27 26 4
28 0 4
28 1 6
28 2 2
28 3 3
28 4 6
28 5 3
28 6 6
28 7 2
28 8 4
28 9 4
28 10 2
28 11 2
28 12 5
28 13 2
28 14 2
28 15 5
28 16 2
28 17 5
28 18 1
28 19 6
28 20 6
28 21 1
28 22 3
28 23 3
28 24 5
28 25 5
28 26 2
28 27 3
29 0 3
29 1 1
29 2 2
29 3 1
29 4 6
29 5 3
29 6 5
29 7 3
29 8 4
29 9 2
29 10 6
29 11 1
29 12 2
29 13 3
29 14 4
29 15 1
29 16 1
29 17 6
29 18 4
29 19 2
29 20 5
29 21 4
29 22 3
29 23 1
29 24 6
29 25 4
29 26 1
29 27 2
29 28 4
30 0 4
30 1 1
30 2 2
30 3 1
30 4 3
30 5 6
30 6 5
30 7 6
30 8 2
30 9 3
30 10 3
30 11 3
30 12 4
30 13 4
30 14 4
30 15 1
30 16 5
30 17 2
30 18 2
30 19 6
30 20 4
30 21 5
30 22 4
30 23 5
30 24 5
30 25 5
30 26 5
30 27 3
30 28 5
30 29 4
31 0 5
31 1 5
31 2 6
31 3 6
31 4 4
31 5 1
31 6 3
31 7 6
31 8 6
31 9 1
31 10 1
31 11 5
31 12 6
31 13 4
31 14 1
31 15 4
31 16 3
31 17 3
31 18 6
31 19 5
31 20 2
31 21 4
31 22 5
31 23 2
31 24 2
31 25 6
31 26 4
31 27 1
31 28 6
31 29 5
31 30 2
32 0 6
32 1 2
32 2 2
32 3 4
32 4 6
32 5 5
32 6 1
32 7 3
32 8 6
32 9 6
32 10 2
32 11 6
32 12 1
32 13 6
32 14 5
32 15 1
32 16 2
32 17 4
32 18 4
32 19 5
32 20 2
32 21 4
32 22 2
32 23 4
32 24 2
32 25 5
32 26 5
32 27 2
32 28 5
32 29 2
32 30 5
32 31 4
33 0 5
33 1 4
33 2 3
33 3 1
33 4 5
33 5 3
33 6 6
33 7 5
33 8 6
33 9 2
33 10 5
33 11 6
33 12 3
33 13 5
33 14 5
33 15 6
33 16 5
33 17 6
33 18 1
33 19 2
33 20 6
33 21 6
33 22 4
33 23 6
33 24 6
33 25 1
33 26 3
33 27 6
33 28 6
33 29 1
33 30 2
33 31 1
33 32 1
34 0 2
34 1 5
34 2 4
34 3 4
34 4 4
34 5 2
34 6 5
34 7 6
34 8 6
34 9 6
34 10 1
34 11 4
34 12 5
34 13 6
34 14 2
34 15 2
34 16 2
34 17 5
34 18 5
34 19 3
34 20 3
34 21 3
34 22 2
34 23 5
34 24 5
34 25 4
34 26 6
34 27 3
34 28 6
34 29 6
34 30 5
34 31 6
34 32 5
34 33 4
35 0 4
35 1 3
35 2 4
35 3 3
35 4 6
35 5 1
35 6 4
35 7 5
35 8 2
35 9 4
35 10 5
35 11 5
35 12 1
35 13 2
35 14 5
35 15 6
35 16 2
35 17 2
35 18 6
35 19 4
35 20 6
35 21 1
35 22 4
35 23 1
35 24 5
35 25 5
35 26 5
35 27 2
35 28 2
35 29 5
35 30 1
35 31 5
35 32 1
35 33 5
35 34 6
36 0 1
36 1 3
36 2 2
36 3 2
36 4 3
36 5 4
36 6 3
36 7 5
36 8 5
36 9 1
36 10 6
36 11 1
36 12 6
36 13 5
36 14 2
36 15 5
36 16 6
36 17 4
36 18 4
36 19 2
36 20 1
36 21 6
36 22 1
36 23 5
36 24 4
36 25 5
36 26 2
36 27 6
36 28 2
36 29 6
36 30 3
36 31 2
36 32 1
36 33 5
36 34 6
36 35 1
37 0 5
37 1 5
37 2 1
37 3 3
37 4 5
37 5 2
37 6 2
37 7 3
37 8 4
37 9 5
37 10 3
37 11 6
37 12 5
37 13 6
37 14 6
37 15 5
37 16 2
37 17 6
37 18 5
37 19 3
37 20 2
37 21 2
37 22 6
37 23 3
37 24 1
37 25 1
37 26 2
37 27 4
37 28 4
37 29 1
37 30 6
37 31 6
37 32 5
37 33 2
37 34 2
37 35 6
37 36 1
38 0 6
38 1 3
38 2 4
38 3 3
38 4 2
38 5 5
38 6 3
38 7 5
38 8 4
38 9 3
38 10 2
38 11 1
38 12 3
38 13 1
38 14 1
38 15 3
38 16 3
38 17 6
38 18 3
38 19 3
38 20 6
38 21 6
38 22 6
38 23 1
38 24 6
38 25 5
38 26 4
38 27 4
38 28 3
38 29 1
38 30 2
38 31 2
38 32 5
38 33 2
38 34 1
38 35 5
38 36 2
38 37 2
39 0 1
39 1 6
39 2 5
39 3 4
39 4 6
39 5 1
39 6 3
39 7 4
39 8 6
39 9 3
39 10 3
39 11 4
39 12 6
39 13 1
39 14 3
39 15 5
39 16 6
39 17 6
39 18 3
39 19 2
39 20 6
39 21 5
39 22 3
39 23 6
39 24 2
39 25 3
39 26 3
39 27 6
39 28 5
39 29 4
39 30 5
39 31 2
39 32 1
39 33 5
39 34 3
39 35 5
39 36 1
39 37 3
39 38 3
40 0 4
40 1 3
40 2 2
40 3 1
40 4 1
40 5 4
40 6 3
40 7 2
40 8 2
40 9 6
40 10 3
40 11 5
40 12 5
40 13 3
40 14 4
40 15 4
40 16 6
40 17 4
40 18 5
40 19 1
40 20 6
40 21 4
40 22 3
40 23 4
40 24 1
40 25 4
40 26 1
40 27 3
40 28 6
40 29 5
40 30 5
40 31 6
40 32 6
40 33 4
40 34 2
40 35 5
40 36 5
40 37 3
40 38 6
40 39 3
41 0 4
41 1 5
41 2 4
41 3 6
41 4 2
41 5 2
41 6 6
41 7 5
41 8 3
41 9 2
41 10 5
41 11 1
41 12 1
41 13 4
41 14 5
41 15 1
41 16 6
41 17 6
41 18 5
41 19 6
41 20 2
41 21 5
41 22 6
41 23 3
41 24 3
41 25 2
41 26 6
41 27 1
41 28 4
41 29 4
41 30 6
41 31 5
41 32 4
41 33 6
41 34 6
41 35 3
41 36 4
41 37 4
41 38 2
41 39 2
41 40 1
42 0 2
42 1 1
42 2 3
42 3 5
42 4 2
42 5 1
42 6 4
42 7 1
42 8 3
42 9 1
42 10 6
42 11 6
42 12 2
42 13 6
42 14 4
42 15 2
42 16 1
42 17 5
42 18 1
42 19 2
42 20 2
42 21 3
42 22 4
42 23 2
42 24 2
42 25 3
42 26 5
42 27 6
42 28 1
42 29 2
42 30 4
42 31 5
42 32 1
42 33 3
42 34 2
42 35 5
42 36 3
42 37 1
42 38 4
42 39 5
42 40 3
42 41 5
43 0 5
43 1 2
43 2 6
43 3 2
43 4 6
43 5 6
43 6 4
43 7 1
43 8 3
43 9 4
43 10 5
43 11 5
43 12 3
43 13 3
43 14 2
43 15 1
43 16 1
43 17 6
43 18 5
43 19 4
43 20 4
43 21 6
43 22 2
43 23 5
43 24 2
43 25 1
43 26 5
43 27 4
43 28 5
43 29 2
43 30 1
43 31 3
43 32 3
43 33 1
43 34 5
43 35 1
43 36 5
43 37 3
43 38 3
43 39 4
43 40 4
43 41 6
43 42 3
44 0 1
44 1 5
44 2 1
44 3 5
44 4 5
44 5 6
44 6 1
44 7 4
44 8 4
44 9 2
44 10 3
44 11 4
44 12 6
44 13 2
44 14 6
44 15 3
44 16 2
44 17 1
44 18 2
44 19 2
44 20 3
44 21 6
44 22 5
44 23 3
44 24 1
44 25 4
44 26 3
44 27 4
44 28 4
44 29 4
44 30 6
44 31 1
44 32 6
44 33 4
44 34 4
44 35 4
44 36 2
44 37 3
44 38 1
44 39 6
44 40 5
44 41 6
44 42 1
44 43 4
45 0 3
45 1 2
45 2 6
45 3 4
45 4 3
45 5 6
45 6 2
45 7 1
45 8 6
45 9 2
45 10 6
45 11 2
45 12 1
45 13 3
45 14 3
45 15 1
45 16 1
45 17 5
45 18 4
45 19 2
45 20 2
45 21 5
45 22 4
45 23 2
45 24 4
45 25 3
45 26 5
45 27 1
45 28 4
45 29 5
45 30 3
45 31 2
45 32 4
45 33 3
45 34 5
45 35 1
45 36 2
45 37 1
45 38 1
45 39 2
45 40 2
45 41 6
45 42 6
45 43 4
45 44 2
46 0 6
46 1 6
46 2 5
46 3 3
46 4 6
46 5 4
46 6 2
46 7 1
46 8 4
46 9 1
46 10 4
46 11 1
46 12 1
46 13 1
46 14 5
46 15 3
46 16 3
46 17 5
46 18 3
46 19 4
46 20 2
46 21 6
46 22 6
46 23 2
46 24 1
46 25 5
46 26 5
46 27 6
46 28 3
46 29 4
46 30 3
46 31 3
46 32 2
46 33 6
46 34 2
46 35 2
46 36 5
46 37 6
46 38 2
46 39 2
46 40 6
46 41 1
46 42 1
46 43 1
46 44 5
46 45 2
47 0 2
47 1 4
47 2 1
47 3 5
47 4 3
47 5 6
47 6 6
47 7 4
47 8 3
47 9 4
47 10 2
47 11 2
47 12 6
47 13 1
47 14 1
47 15 3
47 16 6
47 17 6
47 18 2
47 19 6
47 20 4
47 21 5
47 22 4
47 23 3
47 24 6
47 25 3
47 26 2
47 27 4
47 28 4
47 29 6
47 30 5
47 31 3
47 32 6
47 33 5
47 34 2
47 35 4
47 36 2
47 37 5
47 38 4
47 39 3
47 40 6
47 41 5
47 42 4
47 43 5
47 44 2
47 45 3
47 46 3
48 0 1
48 1 5
48 2 1
48 3 5
48 4 5
48 5 1
48 6 4
48 7 4
48 8 5
48 9 1
48 10 4
48 11 1
48 12 2
48 13 3
48 14 1
48 15 5
48 16 4
48 17 2
48 18 1
48 19 2
48 20 4
48 21 5
48 22 1
48 23 1
48 24 1
48 25 3
48 26 2
48 27 1
48 28 1
48 29 4
48 30 6
48 31 6
48 32 1
48 33 3
48 34 6
48 35 1
48 36 6
48 37 2
48 38 1
48 39 6
48 40 2
48 41 4
48 42 6
48 43 5
48 44 6
48 45 3
48 46 6
48 47 2
49 0 2
49 1 1
49 2 2
49 3 2
49 4 5
49 5 3
49 6 1
49 7 1
49 8 4
49 9 6
49 10 5
49 11 3
49 12 4
49 13 6
49 14 6
49 15 4
49 16 4
49 17 1
49 18 2
49 19 4
49 20 1
49 21 1
49 22 5
49 23 1
49 24 4
49 25 1
49 26 6
49 27 3
49 28 2
49 29 3
49 30 5
49 31 2
49 32 2
49 33 6
49 34 6
49 35 6
49 36 1
49 37 6
49 38 1
49 39 4
49 40 2
49 41 5
49 42 5
49 43 3
49 44 2
49 45 2
49 46 2
49 47 5
49 48 6
50 0 4
50 1 4
50 2 6
50 3 3
50 4 3
50 5 1
50 6 4
50 7 5
50 8 1
50 9 3
50 10 1
50 11 2
50 12 5
50 13 5
50 14 1
50 15 2
50 16 6
50 17 3
50 18 2
50 19 5
50 20 5
50 21 6
50 22 6
50 23 1
50 24 3
50 25 4
50 26 1
50 27 4
50 28 6
50 29 3
50 30 2
50 31 5
50 32 5
50 33 6
50 34 3
50 35 6
50 36 5
50 37 3
50 38 2
50 39 2
50 40 6
50 41 2
50 42 4
50 43 6
50 44 5
50 45 6
50 46 4
50 47 3
50 48 5
50 49 4
51 0 4
51 1 1
51 2 5
51 3 3
51 4 1
51 5 5
51 6 4
51 7 1
51 8 5
51 9 2
51 10 5
51 11 6
51 12 5
51 13 5
51 14 5
51 15 1
51 16 5
51 17 3
51 18 6
51 19 2
51 20 4
51 21 5
51 22 4
51 23 3
51 24 6
51 25 1
51 26 2
51 27 4
51 28 1
51 29 5
51 30 4
51 31 3
51 32 6
51 33 4
51 34 1
51 35 2
51 36 3
51 37 3
51 38 4
51 39 1
51 40 5
51 41 4
51 42 1
51 43 5
51 44 2
51 45 1
51 46 4
51 47 2
51 48 3
51 49 1
51 50 3
52 0 4
52 1 3
52 2 1
52 3 5
52 4 1
52 5 3
52 6 4
52 7 4
52 8 3
52 9 5
52 10 4
52 11 6
52 12 5
52 13 6
52 14 4
52 15 2
52 16 5
52 17 1
52 18 6
52 19 3
52 20 4
52 21 4
52 22 3
52 23 6
52 24 3
52 25 6
52 26 3
52 27 1
52 28 1
52 29 1
52 30 2
52 31 2
52 32 3
52 33 3
52 34 6
52 35 1
52 36 2
52 37 2
52 38 4
52 39 4
52 40 4
52 41 5
52 42 5
52 43 5
52 44 5
52 45 1
52 46 1
52 47 2
52 48 4
52 49 2
52 50 6
52 51 2
53 0 4
53 1 5
53 2 6
53 3 6
53 4 6
53 5 5
53 6 1
53 7 6
53 8 5
53 9 4
53 10 2
53 11 1
53 12 3
53 13 1
53 14 6
53 15 2
53 16 4
53 17 4
53 18 6
53 19 2
53 20 2
53 21 4
53 22 3
53 23 6
53 24 3
53 25 3
53 26 6
53 27 6
53 28 1
53 29 5
53 30 2
53 31 4
53 32 3
53 33 5
53 34 5
53 35 6
53 36 1
53 37 3
53 38 1
53 39 5
53 40 5
53 41 3
53 42 6
53 43 1
53 44 1
53 45 6
53 46 5
53 47 5
53 48 5
53 49 5
53 50 4
53 51 5
53 52 6
54 0 6
54 1 3
54 2 4
54 3 3
54 4 4
54 5 5
54 6 5
54 7 4
54 8 3
54 9 3
54 10 5
54 11 6
54 12 6
54 13 4
54 14 2
54 15 5
54 16 5
54 17 1
54 18 4
54 19 5
54 20 1
54 21 1
54 22 1
54 23 1
54 24 6
54 25 6
54 26 4
54 27 6
54 28 6
54 29 3
54 30 1
54 31 3
54 32 3
54 33 2
54 34 1
54 35 5
54 36 1
54 37 5
54 38 5
54 39 3
54 40 5
54 41 2
54 42 6
54 43 6
54 44 5
54 45 1
54 46 1
54 47 2
54 48 5
54 49 1
54 50 4
54 51 1
54 52 2
54 53 3
55 0 5
55 1 1
55 2 6
55 3 6
55 4 2
55 5 4
55 6 6
55 7 6
55 8 2
55 9 2
55 10 4
55 11 6
55 12 2
55 13 2
55 14 3
55 15 4
55 16 4
55 17 4
55 18 1
55 19 3
55 20 4
55 21 4
55 22 1
55 23 3
55 24 6
55 25 3
55 26 4
55 27 6
55 28 2
55 29 5
55 30 1
55 31 1
55 32 1
55 33 1
55 34 4
55 35 5
55 36 2
55 37 4
55 38 2
55 39 5
55 40 5
55 41 2
55 42 5
55 43 1
55 44 2
55 45 6
55 46 1
55 47 6
55 48 4
55 49 3
55 50 1
55 51 6
55 52 3
55 53 1
55 54 1
56 0 1
56 1 2
56 2 2
56 3 1
56 4 4
56 5 4
56 6 3
56 7 4
56 8 4
56 9 5
56 10 6
56 11 2
56 12 6
56 13 6
56 14 4
56 15 1
56 16 5
56 17 2
56 18 2
56 19 1
56 20 5
56 21 2
56 22 1
56 23 2
56 24 3
56 25 2
56 26 6
56 27 4
56 28 2
56 29 3
56 30 6
56 31 1
56 32 2
56 33 1
56 34 5
56 35 3
56 36 5
56 37 4
56 38 4
56 39 3
56 40 5
56 41 3
56 42 1
56 43 3
56 44 4
56 45 2
56 46 6
56 47 1
56 48 1
56 49 3
56 50 1
56 51 4
56 52 4
56 53 5
56 54 4
56 55 3
57 0 5
57 1 5
57 2 5
57 3 2
57 4 1
57 5 2
57 6 1
57 7 4
57 8 2
57 9 3
57 10 3
57 11 1
57 12 4
57 13 1
57 14 1
57 15 1
57 16 1
57 17 1
57 18 3
57 19 4
57 20 2
57 21 2
57 22 3
57 23 2
57 24 6
57 25 3
57 26 1
57 27 3
57 28 2
57 29 4
57 30 4
57 31 4
57 32 3
57 33 4
57 34 6
57 35 5
57 36 1
57 37 2
57 38 4
57 39 3
57 40 1
57 41 3
57 42 1
57 43 5
57 44 6
57 45 5
57 46 1
57 47 2
57 48 2
57 49 4
57 50 1
57 51 3
57 52 6
57 53 2
57 54 4
57 55 6
57 56 5
58 0 1
58 1 1
58 2 2
58 3 3
58 4 6
58 5 3
58 6 1
58 7 5
58 8 3
58 9 2
58 10 2
58 11 2
58 12 5
58 13 2
58 14 6
58 15 3
58 16 1
58 17 4
58 18 6
58 19 5
58 20 5
58 21 4
58 22 5
58 23 5
58 24 6
58 25 1
58 26 6
58 27 4
58 28 3
58 29 3
58 30 2
58 31 4
58 32 4
58 33 2
58 34 3
58 35 1
58 36 6
58 37 3
58 38 6
58 39 6
58 40 1
58 41 5
58 42 5
58 43 3
58 44 2
58 45 1
58 46 1
58 47 2
58 48 5
58 49 2
58 50 4
58 51 3
58 52 3
58 53 6
58 54 3
58 55 5
58 56 4
58 57 4
59 0 6
59 1 6
59 2 2
59 3 6
59 4 3
59 5 4
59 6 5
59 7 3
59 8 1
59 9 4
59 10 6
59 11 2
59 12 5
59 13 5
59 14 3
59 15 2
59 16 2
59 17 4
59 18 6
59 19 4
59 20 3
59 21 6
59 22 3
59 23 1
59 24 3
59 25 5
59 26 5
59 27 3
59 28 5
59 29 5
59 30 4
59 31 1
59 32 2
59 33 6
59 34 1
59 35 1
59 36 3
59 37 3
59 38 6
59 39 3
59 40 3
59 41 4
59 42 4
59 43 5
59 44 3
59 45 1
59 46 1
59 47 5
59 48 4
59 49 5
59 50 4
59 51 1
59 52 4
59 53 5
59 54 1
59 55 6
59 56 6
59 57 3
59 58 2
